Welcome to the CBC MILP Solver 
Version: Trunk
Build Date: Apr 16 2020 

Starting solution of the Linear programming relaxation problem using Primal Simplex

Using Python-MIP package version 1.8.1
Machines:  3 Jobs:  3
Order: 
Job  0 : machine 1 ( 7 ) machine 2 ( 7 ) machine 0 ( 1 ) 
Job  1 : machine 1 ( 4 ) machine 0 ( 3 ) machine 2 ( 7 ) 
Job  2 : machine 1 ( 7 ) machine 2 ( 6 ) machine 0 ( 2 ) 
K:  33
Job  0 , e: machine  0 ( 14 ) machine  1 ( 0 ) machine  2 ( 7 ) 
Job  1 , e: machine  0 ( 4 ) machine  1 ( 0 ) machine  2 ( 7 ) 
Job  2 , e: machine  0 ( 13 ) machine  1 ( 0 ) machine  2 ( 7 ) 
Job  0 , f: machine  0 ( 0 ) machine  1 ( 8 ) machine  2 ( 1 ) 
Job  1 , f: machine  0 ( 7 ) machine  1 ( 10 ) machine  2 ( 0 ) 
Job  2 , f: machine  0 ( 0 ) machine  1 ( 8 ) machine  2 ( 2 ) 
EST and LST:
Job: 0 Machine: 0 EST: 14 LST: 32
Job: 0 Machine: 1 EST: 0 LST: 18
Job: 0 Machine: 2 EST: 7 LST: 25
Job: 1 Machine: 0 EST: 4 LST: 23
Job: 1 Machine: 1 EST: 0 LST: 19
Job: 1 Machine: 2 EST: 7 LST: 26
Job: 2 Machine: 0 EST: 13 LST: 31
Job: 2 Machine: 1 EST: 0 LST: 18
Job: 2 Machine: 2 EST: 7 LST: 25
Order:
Job: 0 Machine: 0 = 2 
Job: 0 Machine: 1 = 0 
Job: 0 Machine: 2 = 1 
Job: 1 Machine: 0 = 1 
Job: 1 Machine: 1 = 0 
Job: 1 Machine: 2 = 2 
Job: 2 Machine: 0 = 2 
Job: 2 Machine: 1 = 0 
Job: 2 Machine: 2 = 1 
Distances:
Job 0, Machine 1 -> Machine 2: distance 7
Job 0, Machine 1 -> Machine 0: distance 14
Job 0, Machine 2 -> Machine 0: distance 7
Job 1, Machine 1 -> Machine 0: distance 4
Job 1, Machine 1 -> Machine 2: distance 7
Job 1, Machine 0 -> Machine 2: distance 3
Job 2, Machine 1 -> Machine 2: distance 7
Job 2, Machine 1 -> Machine 0: distance 13
Job 2, Machine 2 -> Machine 0: distance 6
McCormic linearization
14.0 13.0 2
0.0 0.0 4
0.0 0.0 7
0.0 0.0 7
7.0 7.0 7
7.0 7.0 6
[(0, 1), (0, 0), (0, 2), (2, 1), (2, 0), (1, 1)]
obj:  0.0
solutions:  1
+ 0.14285714285714285x(0,1) + 0.14285714285714285x(2,1) 
C:  18.499999999999996
x(0,0) = 17.50	 x(0,1) = 3.50	 x(0,2) = 10.50	 
x(1,0) = 8.50	 x(1,1) = 4.50	 x(1,2) = 11.50	 
x(2,0) = 16.50	 x(2,1) = 3.50	 x(2,2) = 10.50	 
y(0,1,0) = 0.00	 y(1,0,0) = 1.00	 
y(0,2,0) = 0.90	 y(2,0,0) = 0.10	 
y(1,2,0) = 0.59	 y(2,1,0) = 0.41	 
y(0,1,1) = 0.22	 y(1,0,1) = 0.78	 
y(0,2,1) = 0.72	 y(2,0,1) = 0.28	 
y(1,2,1) = 0.36	 y(2,1,1) = 0.64	 
y(0,1,2) = 0.76	 y(1,0,2) = 0.24	 
y(0,2,2) = 0.42	 y(2,0,2) = 0.58	 
y(1,2,2) = 0.50	 y(2,1,2) = 0.50	 
17.499999999999996 16.499999999999996 2
4.499999999999996 3.5000000000000053 7
11.499999999999995 10.5 6
obj:  0.638095238095238
solutions:  1
+ 0.06666666666666668x(0,1) + 0.06666666666666668x(2,1) + 0.038095238095238085x(1,1) 
[(0, 1), (0, 0), (0, 2), (2, 1), (2, 0), (1, 1)]
cliques:  1 mip: 10
C:  21.999999999999996
x(0,0) = 17.83	 x(0,1) = 3.83	 x(0,2) = 10.83	 
x(1,0) = 11.29	 x(1,1) = 7.29	 x(1,2) = 15.00	 
x(2,0) = 20.00	 x(2,1) = 7.00	 x(2,2) = 14.00	 
y(0,1,0) = 0.00	 y(1,0,0) = 1.00	 
y(0,2,0) = 0.93	 y(2,0,0) = 0.07	 
y(1,2,0) = 0.46	 y(2,1,0) = 0.54	 
y(0,1,1) = 0.86	 y(1,0,1) = 0.14	 
y(0,2,1) = 0.45	 y(2,0,1) = 0.55	 
y(1,2,1) = 0.27	 y(2,1,1) = 0.73	 
y(0,1,2) = 0.53	 y(1,0,2) = 0.47	 
y(0,2,2) = 0.38	 y(2,0,2) = 0.62	 
y(1,2,2) = 0.69	 y(2,1,2) = 0.31	 
7.291666666666665 6.999999999999999 7
14.999999999999995 13.999999999999998 6
obj:  0.97008547008547
solutions:  1
+ 0.02564102564102565x(1,2) + 0.021978021978021983x(2,2) + 0.02564102564102564x(0,2) 
[(0, 1), (1, 2), (2, 1), (1, 1), (2, 2), (0, 2)]
cliques:  1 mip: 23
C:  22.752499999999735
x(0,0) = 20.10	 x(0,1) = 5.03	 x(0,2) = 13.10	 
x(1,0) = 10.25	 x(1,1) = 3.88	 x(1,2) = 13.25	 
x(2,0) = 20.75	 x(2,1) = 7.75	 x(2,2) = 14.75	 
y(0,1,0) = 0.00	 y(1,0,0) = 1.00	 
y(0,2,0) = 0.82	 y(2,0,0) = 0.18	 
y(1,2,0) = 0.75	 y(2,1,0) = 0.25	 
y(0,1,1) = 0.67	 y(1,0,1) = 0.33	 
y(0,2,1) = 0.39	 y(2,0,1) = 0.61	 
y(1,2,1) = 0.92	 y(2,1,1) = 0.08	 
y(0,1,2) = 0.27	 y(1,0,2) = 0.73	 
y(0,2,2) = 0.59	 y(2,0,2) = 0.41	 
y(1,2,2) = 0.31	 y(2,1,2) = 0.69	 
5.030277777776934 3.880138888888208 4
obj:  1.0
erro
[(0, 1), (0, 0), (0, 2), (2, 1), (2, 0), (1, 1)]
cliques:  0 mip: 38
C:  24.41379168576737
x(0,0) = 21.63	 x(0,1) = 5.91	 x(0,2) = 14.06	 
x(1,0) = 9.55	 x(1,1) = 5.55	 x(1,2) = 12.55	 
x(2,0) = 20.45	 x(2,1) = 5.91	 x(2,2) = 14.45	 
y(0,1,0) = 0.00	 y(1,0,0) = 1.00	 
y(0,2,0) = 0.89	 y(2,0,0) = 0.11	 
y(1,2,0) = 0.50	 y(2,1,0) = 0.50	 
y(0,1,1) = 0.71	 y(1,0,1) = 0.29	 
y(0,2,1) = 0.50	 y(2,0,1) = 0.50	 
y(1,2,1) = 0.39	 y(2,1,1) = 0.61	 
y(0,1,2) = 0.39	 y(1,0,2) = 0.61	 
y(0,2,2) = 0.27	 y(2,0,2) = 0.73	 
y(1,2,2) = 0.61	 y(2,1,2) = 0.39	 
21.63170400618701 20.452580801988077 2
5.913791685767368 5.551729099814234 4
14.060344498481694 12.551729099814233 7
obj:  1.0000000000000013
erro
[(0, 1), (0, 0), (0, 2), (2, 1), (2, 0), (1, 1)]
cliques:  0 mip: 41
C:  24.99999759930155
x(0,0) = 22.31	 x(0,1) = 5.38	 x(0,2) = 15.31	 
x(1,0) = 9.73	 x(1,1) = 5.73	 x(1,2) = 12.73	 
x(2,0) = 20.20	 x(2,1) = 6.35	 x(2,2) = 13.35	 
y(0,1,0) = 0.00	 y(1,0,0) = 1.00	 
y(0,2,0) = 0.84	 y(2,0,0) = 0.16	 
y(1,2,0) = 0.69	 y(2,1,0) = 0.31	 
y(0,1,1) = 0.47	 y(1,0,1) = 0.53	 
y(0,2,1) = 0.66	 y(2,0,1) = 0.34	 
y(1,2,1) = 0.30	 y(2,1,1) = 0.70	 
y(0,1,2) = 0.28	 y(1,0,2) = 0.72	 
y(0,2,2) = 0.51	 y(2,0,2) = 0.49	 
y(1,2,2) = 0.57	 y(2,1,2) = 0.43	 
15.311177916729985 12.733963432188046 7
15.311177916729985 13.347385423386983 6
obj:  0.9999999999999999
erro
[(0, 1), (1, 2), (2, 1), (1, 1), (2, 2), (0, 2)]
cliques:  0 mip: 37
C:  24.99999759930155
x(0,0) = 22.31	 x(0,1) = 5.38	 x(0,2) = 15.31	 
x(1,0) = 9.73	 x(1,1) = 5.73	 x(1,2) = 12.73	 
x(2,0) = 20.20	 x(2,1) = 6.35	 x(2,2) = 13.35	 
y(0,1,0) = 0.00	 y(1,0,0) = 1.00	 
y(0,2,0) = 0.84	 y(2,0,0) = 0.16	 
y(1,2,0) = 0.69	 y(2,1,0) = 0.31	 
y(0,1,1) = 0.47	 y(1,0,1) = 0.53	 
y(0,2,1) = 0.66	 y(2,0,1) = 0.34	 
y(1,2,1) = 0.30	 y(2,1,1) = 0.70	 
y(0,1,2) = 0.28	 y(1,0,2) = 0.72	 
y(0,2,2) = 0.51	 y(2,0,2) = 0.49	 
y(1,2,2) = 0.57	 y(2,1,2) = 0.43	 
15.311177916729985 12.733963432188046 7
15.311177916729985 13.347385423386983 6
obj:  0.9999999999999999
erro
[(0, 1), (1, 2), (2, 1), (1, 1), (2, 2), (0, 2)]
cliques:  0 mip: 37
C:  24.99999759930155
x(0,0) = 22.31	 x(0,1) = 5.38	 x(0,2) = 15.31	 
x(1,0) = 9.73	 x(1,1) = 5.73	 x(1,2) = 12.73	 
x(2,0) = 20.20	 x(2,1) = 6.35	 x(2,2) = 13.35	 
y(0,1,0) = 0.00	 y(1,0,0) = 1.00	 
y(0,2,0) = 0.84	 y(2,0,0) = 0.16	 
y(1,2,0) = 0.69	 y(2,1,0) = 0.31	 
y(0,1,1) = 0.47	 y(1,0,1) = 0.53	 
y(0,2,1) = 0.66	 y(2,0,1) = 0.34	 
y(1,2,1) = 0.30	 y(2,1,1) = 0.70	 
y(0,1,2) = 0.28	 y(1,0,2) = 0.72	 
y(0,2,2) = 0.51	 y(2,0,2) = 0.49	 
y(1,2,2) = 0.57	 y(2,1,2) = 0.43	 
15.311177916729985 12.733963432188046 7
15.311177916729985 13.347385423386983 6
obj:  0.9999999999999999
erro
[(0, 1), (1, 2), (2, 1), (1, 1), (2, 2), (0, 2)]
cliques:  0 mip: 37
C:  24.99999759930155
x(0,0) = 22.31	 x(0,1) = 5.38	 x(0,2) = 15.31	 
x(1,0) = 9.73	 x(1,1) = 5.73	 x(1,2) = 12.73	 
x(2,0) = 20.20	 x(2,1) = 6.35	 x(2,2) = 13.35	 
y(0,1,0) = 0.00	 y(1,0,0) = 1.00	 
y(0,2,0) = 0.84	 y(2,0,0) = 0.16	 
y(1,2,0) = 0.69	 y(2,1,0) = 0.31	 
y(0,1,1) = 0.47	 y(1,0,1) = 0.53	 
y(0,2,1) = 0.66	 y(2,0,1) = 0.34	 
y(1,2,1) = 0.30	 y(2,1,1) = 0.70	 
y(0,1,2) = 0.28	 y(1,0,2) = 0.72	 
y(0,2,2) = 0.51	 y(2,0,2) = 0.49	 
y(1,2,2) = 0.57	 y(2,1,2) = 0.43	 
15.311177916729985 12.733963432188046 7
15.311177916729985 13.347385423386983 6
obj:  0.9999999999999999
erro
[(0, 1), (1, 2), (2, 1), (1, 1), (2, 2), (0, 2)]
cliques:  0 mip: 37
C:  24.99999759930155
x(0,0) = 22.31	 x(0,1) = 5.38	 x(0,2) = 15.31	 
x(1,0) = 9.73	 x(1,1) = 5.73	 x(1,2) = 12.73	 
x(2,0) = 20.20	 x(2,1) = 6.35	 x(2,2) = 13.35	 
y(0,1,0) = 0.00	 y(1,0,0) = 1.00	 
y(0,2,0) = 0.84	 y(2,0,0) = 0.16	 
y(1,2,0) = 0.69	 y(2,1,0) = 0.31	 
y(0,1,1) = 0.47	 y(1,0,1) = 0.53	 
y(0,2,1) = 0.66	 y(2,0,1) = 0.34	 
y(1,2,1) = 0.30	 y(2,1,1) = 0.70	 
y(0,1,2) = 0.28	 y(1,0,2) = 0.72	 
y(0,2,2) = 0.51	 y(2,0,2) = 0.49	 
y(1,2,2) = 0.57	 y(2,1,2) = 0.43	 
15.311177916729985 12.733963432188046 7
15.311177916729985 13.347385423386983 6
obj:  0.9999999999999999
erro
[(0, 1), (1, 2), (2, 1), (1, 1), (2, 2), (0, 2)]
cliques:  0 mip: 37
C:  24.99999759930155
x(0,0) = 22.31	 x(0,1) = 5.38	 x(0,2) = 15.31	 
x(1,0) = 9.73	 x(1,1) = 5.73	 x(1,2) = 12.73	 
x(2,0) = 20.20	 x(2,1) = 6.35	 x(2,2) = 13.35	 
y(0,1,0) = 0.00	 y(1,0,0) = 1.00	 
y(0,2,0) = 0.84	 y(2,0,0) = 0.16	 
y(1,2,0) = 0.69	 y(2,1,0) = 0.31	 
y(0,1,1) = 0.47	 y(1,0,1) = 0.53	 
y(0,2,1) = 0.66	 y(2,0,1) = 0.34	 
y(1,2,1) = 0.30	 y(2,1,1) = 0.70	 
y(0,1,2) = 0.28	 y(1,0,2) = 0.72	 
y(0,2,2) = 0.51	 y(2,0,2) = 0.49	 
y(1,2,2) = 0.57	 y(2,1,2) = 0.43	 
15.311177916729985 12.733963432188046 7
15.311177916729985 13.347385423386983 6
obj:  0.9999999999999999
erro
[(0, 1), (1, 2), (2, 1), (1, 1), (2, 2), (0, 2)]
cliques:  0 mip: 37
C:  24.99999759930155
x(0,0) = 22.31	 x(0,1) = 5.38	 x(0,2) = 15.31	 
x(1,0) = 9.73	 x(1,1) = 5.73	 x(1,2) = 12.73	 
x(2,0) = 20.20	 x(2,1) = 6.35	 x(2,2) = 13.35	 
y(0,1,0) = 0.00	 y(1,0,0) = 1.00	 
y(0,2,0) = 0.84	 y(2,0,0) = 0.16	 
y(1,2,0) = 0.69	 y(2,1,0) = 0.31	 
y(0,1,1) = 0.47	 y(1,0,1) = 0.53	 
y(0,2,1) = 0.66	 y(2,0,1) = 0.34	 
y(1,2,1) = 0.30	 y(2,1,1) = 0.70	 
y(0,1,2) = 0.28	 y(1,0,2) = 0.72	 
y(0,2,2) = 0.51	 y(2,0,2) = 0.49	 
y(1,2,2) = 0.57	 y(2,1,2) = 0.43	 
15.311177916729985 12.733963432188046 7
15.311177916729985 13.347385423386983 6
obj:  0.9999999999999999
erro
[(0, 1), (1, 2), (2, 1), (1, 1), (2, 2), (0, 2)]
cliques:  0 mip: 37
C:  24.99999759930155
x(0,0) = 22.31	 x(0,1) = 5.38	 x(0,2) = 15.31	 
x(1,0) = 9.73	 x(1,1) = 5.73	 x(1,2) = 12.73	 
x(2,0) = 20.20	 x(2,1) = 6.35	 x(2,2) = 13.35	 
y(0,1,0) = 0.00	 y(1,0,0) = 1.00	 
y(0,2,0) = 0.84	 y(2,0,0) = 0.16	 
y(1,2,0) = 0.69	 y(2,1,0) = 0.31	 
y(0,1,1) = 0.47	 y(1,0,1) = 0.53	 
y(0,2,1) = 0.66	 y(2,0,1) = 0.34	 
y(1,2,1) = 0.30	 y(2,1,1) = 0.70	 
y(0,1,2) = 0.28	 y(1,0,2) = 0.72	 
y(0,2,2) = 0.51	 y(2,0,2) = 0.49	 
y(1,2,2) = 0.57	 y(2,1,2) = 0.43	 
15.311177916729985 12.733963432188046 7
15.311177916729985 13.347385423386983 6
obj:  0.9999999999999999
erro
[(0, 1), (1, 2), (2, 1), (1, 1), (2, 2), (0, 2)]
cliques:  0 mip: 37
C:  24.99999759930155
x(0,0) = 22.31	 x(0,1) = 5.38	 x(0,2) = 15.31	 
x(1,0) = 9.73	 x(1,1) = 5.73	 x(1,2) = 12.73	 
x(2,0) = 20.20	 x(2,1) = 6.35	 x(2,2) = 13.35	 
y(0,1,0) = 0.00	 y(1,0,0) = 1.00	 
y(0,2,0) = 0.84	 y(2,0,0) = 0.16	 
y(1,2,0) = 0.69	 y(2,1,0) = 0.31	 
y(0,1,1) = 0.47	 y(1,0,1) = 0.53	 
y(0,2,1) = 0.66	 y(2,0,1) = 0.34	 
y(1,2,1) = 0.30	 y(2,1,1) = 0.70	 
y(0,1,2) = 0.28	 y(1,0,2) = 0.72	 
y(0,2,2) = 0.51	 y(2,0,2) = 0.49	 
y(1,2,2) = 0.57	 y(2,1,2) = 0.43	 
15.311177916729985 12.733963432188046 7
15.311177916729985 13.347385423386983 6
obj:  0.9999999999999999
erro
[(0, 1), (1, 2), (2, 1), (1, 1), (2, 2), (0, 2)]
cliques:  0 mip: 37
C:  24.99999759930155
x(0,0) = 22.31	 x(0,1) = 5.38	 x(0,2) = 15.31	 
x(1,0) = 9.73	 x(1,1) = 5.73	 x(1,2) = 12.73	 
x(2,0) = 20.20	 x(2,1) = 6.35	 x(2,2) = 13.35	 
y(0,1,0) = 0.00	 y(1,0,0) = 1.00	 
y(0,2,0) = 0.84	 y(2,0,0) = 0.16	 
y(1,2,0) = 0.69	 y(2,1,0) = 0.31	 
y(0,1,1) = 0.47	 y(1,0,1) = 0.53	 
y(0,2,1) = 0.66	 y(2,0,1) = 0.34	 
y(1,2,1) = 0.30	 y(2,1,1) = 0.70	 
y(0,1,2) = 0.28	 y(1,0,2) = 0.72	 
y(0,2,2) = 0.51	 y(2,0,2) = 0.49	 
y(1,2,2) = 0.57	 y(2,1,2) = 0.43	 
15.311177916729985 12.733963432188046 7
15.311177916729985 13.347385423386983 6
obj:  0.9999999999999999
erro
[(0, 1), (1, 2), (2, 1), (1, 1), (2, 2), (0, 2)]
cliques:  0 mip: 37
C:  24.99999759930155
x(0,0) = 22.31	 x(0,1) = 5.38	 x(0,2) = 15.31	 
x(1,0) = 9.73	 x(1,1) = 5.73	 x(1,2) = 12.73	 
x(2,0) = 20.20	 x(2,1) = 6.35	 x(2,2) = 13.35	 
y(0,1,0) = 0.00	 y(1,0,0) = 1.00	 
y(0,2,0) = 0.84	 y(2,0,0) = 0.16	 
y(1,2,0) = 0.69	 y(2,1,0) = 0.31	 
y(0,1,1) = 0.47	 y(1,0,1) = 0.53	 
y(0,2,1) = 0.66	 y(2,0,1) = 0.34	 
y(1,2,1) = 0.30	 y(2,1,1) = 0.70	 
y(0,1,2) = 0.28	 y(1,0,2) = 0.72	 
y(0,2,2) = 0.51	 y(2,0,2) = 0.49	 
y(1,2,2) = 0.57	 y(2,1,2) = 0.43	 
15.311177916729985 12.733963432188046 7
15.311177916729985 13.347385423386983 6
obj:  0.9999999999999999
erro
[(0, 1), (1, 2), (2, 1), (1, 1), (2, 2), (0, 2)]
cliques:  0 mip: 37
C:  24.99999759930155
x(0,0) = 22.31	 x(0,1) = 5.38	 x(0,2) = 15.31	 
x(1,0) = 9.73	 x(1,1) = 5.73	 x(1,2) = 12.73	 
x(2,0) = 20.20	 x(2,1) = 6.35	 x(2,2) = 13.35	 
y(0,1,0) = 0.00	 y(1,0,0) = 1.00	 
y(0,2,0) = 0.84	 y(2,0,0) = 0.16	 
y(1,2,0) = 0.69	 y(2,1,0) = 0.31	 
y(0,1,1) = 0.47	 y(1,0,1) = 0.53	 
y(0,2,1) = 0.66	 y(2,0,1) = 0.34	 
y(1,2,1) = 0.30	 y(2,1,1) = 0.70	 
y(0,1,2) = 0.28	 y(1,0,2) = 0.72	 
y(0,2,2) = 0.51	 y(2,0,2) = 0.49	 
y(1,2,2) = 0.57	 y(2,1,2) = 0.43	 
15.311177916729985 12.733963432188046 7
15.311177916729985 13.347385423386983 6
obj:  0.9999999999999999
erro
[(0, 1), (1, 2), (2, 1), (1, 1), (2, 2), (0, 2)]
cliques:  0 mip: 37
C:  24.99999759930155
x(0,0) = 22.31	 x(0,1) = 5.38	 x(0,2) = 15.31	 
x(1,0) = 9.73	 x(1,1) = 5.73	 x(1,2) = 12.73	 
x(2,0) = 20.20	 x(2,1) = 6.35	 x(2,2) = 13.35	 
y(0,1,0) = 0.00	 y(1,0,0) = 1.00	 
y(0,2,0) = 0.84	 y(2,0,0) = 0.16	 
y(1,2,0) = 0.69	 y(2,1,0) = 0.31	 
y(0,1,1) = 0.47	 y(1,0,1) = 0.53	 
y(0,2,1) = 0.66	 y(2,0,1) = 0.34	 
y(1,2,1) = 0.30	 y(2,1,1) = 0.70	 
y(0,1,2) = 0.28	 y(1,0,2) = 0.72	 
y(0,2,2) = 0.51	 y(2,0,2) = 0.49	 
y(1,2,2) = 0.57	 y(2,1,2) = 0.43	 
15.311177916729985 12.733963432188046 7
15.311177916729985 13.347385423386983 6
obj:  0.9999999999999999
erro
[(0, 1), (1, 2), (2, 1), (1, 1), (2, 2), (0, 2)]
cliques:  0 mip: 37
C:  24.99999759930155
x(0,0) = 22.31	 x(0,1) = 5.38	 x(0,2) = 15.31	 
x(1,0) = 9.73	 x(1,1) = 5.73	 x(1,2) = 12.73	 
x(2,0) = 20.20	 x(2,1) = 6.35	 x(2,2) = 13.35	 
y(0,1,0) = 0.00	 y(1,0,0) = 1.00	 
y(0,2,0) = 0.84	 y(2,0,0) = 0.16	 
y(1,2,0) = 0.69	 y(2,1,0) = 0.31	 
y(0,1,1) = 0.47	 y(1,0,1) = 0.53	 
y(0,2,1) = 0.66	 y(2,0,1) = 0.34	 
y(1,2,1) = 0.30	 y(2,1,1) = 0.70	 
y(0,1,2) = 0.28	 y(1,0,2) = 0.72	 
y(0,2,2) = 0.51	 y(2,0,2) = 0.49	 
y(1,2,2) = 0.57	 y(2,1,2) = 0.43	 
15.311177916729985 12.733963432188046 7
15.311177916729985 13.347385423386983 6
obj:  0.9999999999999999
erro
[(0, 1), (1, 2), (2, 1), (1, 1), (2, 2), (0, 2)]
cliques:  0 mip: 37
C:  24.99999759930155
x(0,0) = 22.31	 x(0,1) = 5.38	 x(0,2) = 15.31	 
x(1,0) = 9.73	 x(1,1) = 5.73	 x(1,2) = 12.73	 
x(2,0) = 20.20	 x(2,1) = 6.35	 x(2,2) = 13.35	 
y(0,1,0) = 0.00	 y(1,0,0) = 1.00	 
y(0,2,0) = 0.84	 y(2,0,0) = 0.16	 
y(1,2,0) = 0.69	 y(2,1,0) = 0.31	 
y(0,1,1) = 0.47	 y(1,0,1) = 0.53	 
y(0,2,1) = 0.66	 y(2,0,1) = 0.34	 
y(1,2,1) = 0.30	 y(2,1,1) = 0.70	 
y(0,1,2) = 0.28	 y(1,0,2) = 0.72	 
y(0,2,2) = 0.51	 y(2,0,2) = 0.49	 
y(1,2,2) = 0.57	 y(2,1,2) = 0.43	 
15.311177916729985 12.733963432188046 7
15.311177916729985 13.347385423386983 6
obj:  0.9999999999999999
erro
[(0, 1), (1, 2), (2, 1), (1, 1), (2, 2), (0, 2)]
cliques:  0 mip: 37
C:  24.99999759930155
x(0,0) = 22.31	 x(0,1) = 5.38	 x(0,2) = 15.31	 
x(1,0) = 9.73	 x(1,1) = 5.73	 x(1,2) = 12.73	 
x(2,0) = 20.20	 x(2,1) = 6.35	 x(2,2) = 13.35	 
y(0,1,0) = 0.00	 y(1,0,0) = 1.00	 
y(0,2,0) = 0.84	 y(2,0,0) = 0.16	 
y(1,2,0) = 0.69	 y(2,1,0) = 0.31	 
y(0,1,1) = 0.47	 y(1,0,1) = 0.53	 
y(0,2,1) = 0.66	 y(2,0,1) = 0.34	 
y(1,2,1) = 0.30	 y(2,1,1) = 0.70	 
y(0,1,2) = 0.28	 y(1,0,2) = 0.72	 
y(0,2,2) = 0.51	 y(2,0,2) = 0.49	 
y(1,2,2) = 0.57	 y(2,1,2) = 0.43	 
15.311177916729985 12.733963432188046 7
15.311177916729985 13.347385423386983 6
obj:  0.9999999999999999
erro
[(0, 1), (1, 2), (2, 1), (1, 1), (2, 2), (0, 2)]
cliques:  0 mip: 37
C:  24.99999759930155
x(0,0) = 22.31	 x(0,1) = 5.38	 x(0,2) = 15.31	 
x(1,0) = 9.73	 x(1,1) = 5.73	 x(1,2) = 12.73	 
x(2,0) = 20.20	 x(2,1) = 6.35	 x(2,2) = 13.35	 
y(0,1,0) = 0.00	 y(1,0,0) = 1.00	 
y(0,2,0) = 0.84	 y(2,0,0) = 0.16	 
y(1,2,0) = 0.69	 y(2,1,0) = 0.31	 
y(0,1,1) = 0.47	 y(1,0,1) = 0.53	 
y(0,2,1) = 0.66	 y(2,0,1) = 0.34	 
y(1,2,1) = 0.30	 y(2,1,1) = 0.70	 
y(0,1,2) = 0.28	 y(1,0,2) = 0.72	 
y(0,2,2) = 0.51	 y(2,0,2) = 0.49	 
y(1,2,2) = 0.57	 y(2,1,2) = 0.43	 
15.311177916729985 12.733963432188046 7
15.311177916729985 13.347385423386983 6
obj:  0.9999999999999999
erro
[(0, 1), (1, 2), (2, 1), (1, 1), (2, 2), (0, 2)]
cliques:  0 mip: 37
C:  24.99999759930155
x(0,0) = 22.31	 x(0,1) = 5.38	 x(0,2) = 15.31	 
x(1,0) = 9.73	 x(1,1) = 5.73	 x(1,2) = 12.73	 
x(2,0) = 20.20	 x(2,1) = 6.35	 x(2,2) = 13.35	 
y(0,1,0) = 0.00	 y(1,0,0) = 1.00	 
y(0,2,0) = 0.84	 y(2,0,0) = 0.16	 
y(1,2,0) = 0.69	 y(2,1,0) = 0.31	 
y(0,1,1) = 0.47	 y(1,0,1) = 0.53	 
y(0,2,1) = 0.66	 y(2,0,1) = 0.34	 
y(1,2,1) = 0.30	 y(2,1,1) = 0.70	 
y(0,1,2) = 0.28	 y(1,0,2) = 0.72	 
y(0,2,2) = 0.51	 y(2,0,2) = 0.49	 
y(1,2,2) = 0.57	 y(2,1,2) = 0.43	 
15.311177916729985 12.733963432188046 7
15.311177916729985 13.347385423386983 6
obj:  0.9999999999999999
erro
[(0, 1), (1, 2), (2, 1), (1, 1), (2, 2), (0, 2)]
cliques:  0 mip: 37
C:  24.99999759930155
x(0,0) = 22.31	 x(0,1) = 5.38	 x(0,2) = 15.31	 
x(1,0) = 9.73	 x(1,1) = 5.73	 x(1,2) = 12.73	 
x(2,0) = 20.20	 x(2,1) = 6.35	 x(2,2) = 13.35	 
y(0,1,0) = 0.00	 y(1,0,0) = 1.00	 
y(0,2,0) = 0.84	 y(2,0,0) = 0.16	 
y(1,2,0) = 0.69	 y(2,1,0) = 0.31	 
y(0,1,1) = 0.47	 y(1,0,1) = 0.53	 
y(0,2,1) = 0.66	 y(2,0,1) = 0.34	 
y(1,2,1) = 0.30	 y(2,1,1) = 0.70	 
y(0,1,2) = 0.28	 y(1,0,2) = 0.72	 
y(0,2,2) = 0.51	 y(2,0,2) = 0.49	 
y(1,2,2) = 0.57	 y(2,1,2) = 0.43	 
15.311177916729985 12.733963432188046 7
15.311177916729985 13.347385423386983 6
obj:  0.9999999999999999
erro
[(0, 1), (1, 2), (2, 1), (1, 1), (2, 2), (0, 2)]
cliques:  0 mip: 37
C:  24.99999759930155
x(0,0) = 22.31	 x(0,1) = 5.38	 x(0,2) = 15.31	 
x(1,0) = 9.73	 x(1,1) = 5.73	 x(1,2) = 12.73	 
x(2,0) = 20.20	 x(2,1) = 6.35	 x(2,2) = 13.35	 
y(0,1,0) = 0.00	 y(1,0,0) = 1.00	 
y(0,2,0) = 0.84	 y(2,0,0) = 0.16	 
y(1,2,0) = 0.69	 y(2,1,0) = 0.31	 
y(0,1,1) = 0.47	 y(1,0,1) = 0.53	 
y(0,2,1) = 0.66	 y(2,0,1) = 0.34	 
y(1,2,1) = 0.30	 y(2,1,1) = 0.70	 
y(0,1,2) = 0.28	 y(1,0,2) = 0.72	 
y(0,2,2) = 0.51	 y(2,0,2) = 0.49	 
y(1,2,2) = 0.57	 y(2,1,2) = 0.43	 
15.311177916729985 12.733963432188046 7
15.311177916729985 13.347385423386983 6
obj:  0.9999999999999999
erro
[(0, 1), (1, 2), (2, 1), (1, 1), (2, 2), (0, 2)]
cliques:  0 mip: 37
C:  24.99999759930155
x(0,0) = 22.31	 x(0,1) = 5.38	 x(0,2) = 15.31	 
x(1,0) = 9.73	 x(1,1) = 5.73	 x(1,2) = 12.73	 
x(2,0) = 20.20	 x(2,1) = 6.35	 x(2,2) = 13.35	 
y(0,1,0) = 0.00	 y(1,0,0) = 1.00	 
y(0,2,0) = 0.84	 y(2,0,0) = 0.16	 
y(1,2,0) = 0.69	 y(2,1,0) = 0.31	 
y(0,1,1) = 0.47	 y(1,0,1) = 0.53	 
y(0,2,1) = 0.66	 y(2,0,1) = 0.34	 
y(1,2,1) = 0.30	 y(2,1,1) = 0.70	 
y(0,1,2) = 0.28	 y(1,0,2) = 0.72	 
y(0,2,2) = 0.51	 y(2,0,2) = 0.49	 
y(1,2,2) = 0.57	 y(2,1,2) = 0.43	 
15.311177916729985 12.733963432188046 7
15.311177916729985 13.347385423386983 6
obj:  0.9999999999999999
erro
[(0, 1), (1, 2), (2, 1), (1, 1), (2, 2), (0, 2)]
cliques:  0 mip: 37
C:  24.99999759930155
x(0,0) = 22.31	 x(0,1) = 5.38	 x(0,2) = 15.31	 
x(1,0) = 9.73	 x(1,1) = 5.73	 x(1,2) = 12.73	 
x(2,0) = 20.20	 x(2,1) = 6.35	 x(2,2) = 13.35	 
y(0,1,0) = 0.00	 y(1,0,0) = 1.00	 
y(0,2,0) = 0.84	 y(2,0,0) = 0.16	 
y(1,2,0) = 0.69	 y(2,1,0) = 0.31	 
y(0,1,1) = 0.47	 y(1,0,1) = 0.53	 
y(0,2,1) = 0.66	 y(2,0,1) = 0.34	 
y(1,2,1) = 0.30	 y(2,1,1) = 0.70	 
y(0,1,2) = 0.28	 y(1,0,2) = 0.72	 
y(0,2,2) = 0.51	 y(2,0,2) = 0.49	 
y(1,2,2) = 0.57	 y(2,1,2) = 0.43	 
15.311177916729985 12.733963432188046 7
15.311177916729985 13.347385423386983 6
obj:  0.9999999999999999
erro
[(0, 1), (1, 2), (2, 1), (1, 1), (2, 2), (0, 2)]
cliques:  0 mip: 37
C:  24.99999759930155
x(0,0) = 22.31	 x(0,1) = 5.38	 x(0,2) = 15.31	 
x(1,0) = 9.73	 x(1,1) = 5.73	 x(1,2) = 12.73	 
x(2,0) = 20.20	 x(2,1) = 6.35	 x(2,2) = 13.35	 
y(0,1,0) = 0.00	 y(1,0,0) = 1.00	 
y(0,2,0) = 0.84	 y(2,0,0) = 0.16	 
y(1,2,0) = 0.69	 y(2,1,0) = 0.31	 
y(0,1,1) = 0.47	 y(1,0,1) = 0.53	 
y(0,2,1) = 0.66	 y(2,0,1) = 0.34	 
y(1,2,1) = 0.30	 y(2,1,1) = 0.70	 
y(0,1,2) = 0.28	 y(1,0,2) = 0.72	 
y(0,2,2) = 0.51	 y(2,0,2) = 0.49	 
y(1,2,2) = 0.57	 y(2,1,2) = 0.43	 
15.311177916729985 12.733963432188046 7
15.311177916729985 13.347385423386983 6
obj:  0.9999999999999999
erro
[(0, 1), (1, 2), (2, 1), (1, 1), (2, 2), (0, 2)]
cliques:  0 mip: 37
C:  24.99999759930155
x(0,0) = 22.31	 x(0,1) = 5.38	 x(0,2) = 15.31	 
x(1,0) = 9.73	 x(1,1) = 5.73	 x(1,2) = 12.73	 
x(2,0) = 20.20	 x(2,1) = 6.35	 x(2,2) = 13.35	 
y(0,1,0) = 0.00	 y(1,0,0) = 1.00	 
y(0,2,0) = 0.84	 y(2,0,0) = 0.16	 
y(1,2,0) = 0.69	 y(2,1,0) = 0.31	 
y(0,1,1) = 0.47	 y(1,0,1) = 0.53	 
y(0,2,1) = 0.66	 y(2,0,1) = 0.34	 
y(1,2,1) = 0.30	 y(2,1,1) = 0.70	 
y(0,1,2) = 0.28	 y(1,0,2) = 0.72	 
y(0,2,2) = 0.51	 y(2,0,2) = 0.49	 
y(1,2,2) = 0.57	 y(2,1,2) = 0.43	 
15.311177916729985 12.733963432188046 7
15.311177916729985 13.347385423386983 6
obj:  0.9999999999999999
erro
[(0, 1), (1, 2), (2, 1), (1, 1), (2, 2), (0, 2)]
cliques:  0 mip: 37
C:  24.99999759930155
x(0,0) = 22.31	 x(0,1) = 5.38	 x(0,2) = 15.31	 
x(1,0) = 9.73	 x(1,1) = 5.73	 x(1,2) = 12.73	 
x(2,0) = 20.20	 x(2,1) = 6.35	 x(2,2) = 13.35	 
y(0,1,0) = 0.00	 y(1,0,0) = 1.00	 
y(0,2,0) = 0.84	 y(2,0,0) = 0.16	 
y(1,2,0) = 0.69	 y(2,1,0) = 0.31	 
y(0,1,1) = 0.47	 y(1,0,1) = 0.53	 
y(0,2,1) = 0.66	 y(2,0,1) = 0.34	 
y(1,2,1) = 0.30	 y(2,1,1) = 0.70	 
y(0,1,2) = 0.28	 y(1,0,2) = 0.72	 
y(0,2,2) = 0.51	 y(2,0,2) = 0.49	 
y(1,2,2) = 0.57	 y(2,1,2) = 0.43	 
15.311177916729985 12.733963432188046 7
15.311177916729985 13.347385423386983 6
obj:  0.9999999999999999
erro
[(0, 1), (1, 2), (2, 1), (1, 1), (2, 2), (0, 2)]
cliques:  0 mip: 0
iterações: 29 cortes cliques encontrados: 3 mip: 1010 objective:  24.99999759930155
Coin0506I Presolve 65 (-61) rows, 39 (-25) columns and 202 (-86) elements
Clp1000I sum of infeasibilities 3.24924e-06 - average 4.99884e-08, 0 fixed columns
Coin0506I Presolve 65 (0) rows, 39 (0) columns and 202 (0) elements
Clp0029I End of values pass after 39 iterations
Clp0000I Optimal - objective value 15
Clp0000I Optimal - objective value 15
Coin0511I After Postsolve, objective 15, infeasibilities - dual 0 (0), primal 0 (0)
Clp0000I Optimal - objective value 15
Clp0000I Optimal - objective value 15
Clp0000I Optimal - objective value 15
Coin0511I After Postsolve, objective 15, infeasibilities - dual 0 (0), primal 0 (0)
Clp0032I Optimal objective 15 - 0 iterations time 0.002, Presolve 0.00, Idiot 0.00
Coin3009W Conflict graph built in 0.000 seconds, density: 0.186%
